p cnf 7230 17
-5068 7138 -7140 0
-7091 -7125 -7143 0
-7089 -7123 -7141 0
7091 -7144 0
7089 -7142 0
7143 7144 0
7141 7142 0
7125 -7144 0
7123 -7142 0
7139 7140 0
7121 -7140 0
-7121 -7139 0
-7097 -7127 7146 0
-7137 -7138 0
7127 -7146 0
7097 -7146 0
7137 7138 0
